c A SAT instance generated from a 3-CNF formula that had 33 clauses and 11 variables
p cnf 11 33
1 10 9 0
6 -11 -10 0
-8 -6 -10 0
11 -2 -5 0
-4 5 -8 0
-4 -1 -6 0
-4 -5 -8 0
-5 8 10 0
-10 -2 -11 0
9 7 -10 0
3 -7 4 0
-3 7 4 0
10 3 -8 0
-1 -8 10 0
-9 -11 6 0
9 4 -10 0
1 6 -4 0
-9 -3 6 0
-3 -7 -6 0
10 -5 -1 0
-3 7 10 0
-3 -10 7 0
6 -4 -9 0
6 -5 8 0
2 -11 -5 0
8 -7 3 0
-9 10 -7 0
-11 -8 -4 0
6 -9 -11 0
-3 9 11 0
4 -7 1 0
11 -6 8 0
-1 4 -8 0
